Instance Name : r206
Date : 2022-07-21
Solution
Route 1 : 94 59 92 98 37 42 15 14 44 38 86 16 61 84 5 99 96 6 95 97 87 2 57 43 100 91 85 93 17 83 60 89 13 58
Route 2 : 45 82 48 47 36 19 11 64 63 62 88 7 18 8 46 49 10 90 32 66 35 20 70 31 52
Route 3 : 27 69 1 30 33 71 65 34 78 29 79 81 9 51 50 76 12 26 40 53
Route 4 : 28 21 73 72 39 67 23 41 22 74 75 56 4 25 55 54 24 80 68 3 77
